
Gurobi 12.0.2 (win64) logging started Mon Nov 10 21:25:58 2025

Set parameter LogFile to value "C:\Ioana\_uni\honours\slp\algorithm\Main_files\results\paracetamol_numaistiu\Task_005_Sample001_irr_gurobi.log"
Gurobi Optimizer version 12.0.2 build v12.0.2rc0 (win64 - Windows 11.0 (26100.2))

CPU model: Intel(R) Core(TM) Ultra 5 125H, instruction set [SSE2|AVX|AVX2]
Thread count: 14 physical cores, 18 logical processors, using up to 18 threads

Non-default parameters:
TimeLimit  2200

Optimize a model with 47236 rows, 34507 columns and 146717 nonzeros
Model fingerprint: 0x18854228
Variable types: 17258 continuous, 17249 integer (17249 binary)
Coefficient statistics:
  Matrix range     [1e-04, 8e+04]
  Objective range  [1e-04, 9e-01]
  Bounds range     [1e+00, 1e+03]
  RHS range        [1e+00, 1e+00]
Presolve removed 30835 rows and 21554 columns
Presolve time: 0.32s
Presolved: 16401 rows, 12953 columns, 54585 nonzeros
Variable types: 6411 continuous, 6542 integer (6542 binary)

Root relaxation: objective 8.772222e-01, 4355 iterations, 0.47 seconds (1.04 work units)

    Nodes    |    Current Node    |     Objective Bounds      |     Work
 Expl Unexpl |  Obj  Depth IntInf | Incumbent    BestBd   Gap | It/Node Time

     0     0    0.87722    0    5          -    0.87722      -     -    0s
H    0     0                       0.9044949    0.87722  3.02%     -    0s
     0     0    0.88951    0    7    0.90449    0.88951  1.66%     -    1s
     0     0    0.88951    0    2    0.90449    0.88951  1.66%     -    1s
     0     0    0.90143    0    2    0.90449    0.90143  0.34%     -    1s
     0     0     cutoff    0         0.90449    0.90449  0.00%     -    1s

Cutting planes:
  Cover: 1
  Flow cover: 2
  Flow path: 1
  Relax-and-lift: 1

Explored 1 nodes (4778 simplex iterations) in 1.15 seconds (1.70 work units)
Thread count was 18 (of 18 available processors)

Solution count 1: 0.904495 

Optimal solution found (tolerance 1.00e-04)
Best objective 9.044948790440e-01, best bound 9.044948790440e-01, gap 0.0000%
